NAME : random_13
COMMENT : 40 random nodes
TYPE : TSP
DIMENSION : 40
EDGE_WEIGHT_TYPE : EUC_2D
NODE_COORD_SECTION
1 285 340
2 776 704
3 419 544
4 910 401
5 752 68
6 923 290
7 240 254
8 228 612
9 934 312
10 498 248
11 554 406
12 766 342
13 367 496
14 440 726
15 980 77
16 856 746
17 677 828
18 865 724
19 729 789
20 720 760
21 628 908
22 976 99
23 798 833
24 135 169
25 655 948
26 82 586
27 992 636
28 529 106
29 344 617
30 831 904
31 340 679
32 886 348
33 196 45
34 576 759
35 208 74
36 104 178
37 789 659
38 213 156
39 237 830
40 549 702
EOF